Rodando pra 1h

Optimize a model with 160087 rows, 239472 columns and 5898399 nonzeros
Coefficient statistics:
  Matrix range    [1e+00, 1e+04]
  Objective range [2e-01, 2e-01]
  Bounds range    [1e+00, 1e+04]
  RHS range       [1e+00, 1e+04]
Presolve removed 4 rows and 4 columns (presolve time = 6s) ...
Presolve removed 4 rows and 4 columns (presolve time = 10s) ...
Presolve removed 4 rows and 4 columns (presolve time = 15s) ...
Presolve removed 4 rows and 4 columns (presolve time = 20s) ...
Presolve removed 4 rows and 4 columns (presolve time = 25s) ...
Presolve removed 4 rows and 4 columns (presolve time = 30s) ...
Presolve removed 4 rows and 4 columns (presolve time = 35s) ...
Presolve removed 4 rows and 4 columns (presolve time = 40s) ...
Presolve removed 4 rows and 4 columns
Presolve time: 44.45s
Presolved: 160083 rows, 239468 columns, 5898375 nonzeros
Variable types: 159600 continuous, 79868 integer (79864 binary)
Optimize a model with 160083 rows, 239468 columns and 5898375 nonzeros
Coefficient statistics:
  Matrix range    [1e+00, 1e+04]
  Objective range [2e-01, 2e-01]
  Bounds range    [1e+00, 1e+04]
  RHS range       [1e+00, 2e+04]
Presolved: 160083 rows, 239468 columns, 5898375 nonzeros


Root simplex log...

Iteration    Objective       Primal Inf.    Dual Inf.      Time
       0    0.0000000e+00   1.210779e+03   0.000000e+00     54s
     841    0.0000000e+00   0.000000e+00   0.000000e+00     54s

Root relaxation: objective 0.000000e+00, 841 iterations, 2.88 seconds

    Nodes    |    Current Node    |     Objective Bounds      |     Work
 Expl Unexpl |  Obj  Depth IntInf | Incumbent    BestBd   Gap | It/Node Time

     0     0    0.00000    0  420          -    0.00000      -     -  800s
     0     0 1155.10325    0  545          - 1155.10325      -     - 2066s
     0     0          -    0               - 1155.10325      -     - 3600s

Cutting planes:
  Flow cover: 399

Explored 0 nodes (352006 simplex iterations) in 3600.01 seconds
Thread count was 1 (of 4 available processors)

Time limit reached
Best objective -, best bound 1.155250000000e+03, gap -
Tempo: 3596.33 segundos

Error code = 10004
Var::get
